# Solution for model Objective
# Objective value = 6
M 3
W3 0
W4 0
W9 0
W12 0
W13 0
W14 0
W15 0
W19 0
W20 0
W22 0
W23 0
W24 0
W25 0
W26 1
W27 0
W28 0
W31 0
W34 0
W35 0
W36 0
W38 0
W39 0
W40 0
W41 0
W43 1
W44 0
W45 1
W46 0
W47 0
W0 0
W1 3
W2 3
W5 2
W6 3
W7 1
W8 3
W10 3
W11 3
W16 3
W17 3
W18 3
W21 2
W29 2
W30 1
W32 0
W33 0
W37 2
W42 0
d0_1 1
d0_2 0
d0_3 0
d0_4 0
d0_5 0
d0_6 0
d0_7 0
d0_8 0
d0_9 0
d0_0 0
d1_1 0
d1_2 1
d1_3 0
d1_4 0
d1_5 0
d1_6 0
d1_7 0
d1_8 0
d1_9 0
d1_0 0
d2_1 0
d2_2 0
d2_3 1
d2_4 0
d2_5 0
d2_6 0
d2_7 0
d2_8 0
d2_9 0
d2_0 0
d3_1 0
d3_2 0
d3_3 0
d3_4 1
d3_5 0
d3_6 0
d3_7 0
d3_8 0
d3_9 0
d3_0 0
d4_1 0
d4_2 0
d4_3 0
d4_4 1
d4_5 0
d4_6 0
d4_7 0
d4_8 0
d4_9 0
d4_0 0
